CUST_NO   XCOORD   YCOORD   READY_TIME   DUE_DATE   SERVICE_TIME    VEHICLE_NUMBER

    0      35         35          0        230          0                 10
    1      41         49        133        198         10
    2      35         17         22         87         10
    3      55         45         98        143         10
    4      55         20        123        184         10
    5      15         30         20         93         10
    6      25         30         76        131         10
    7      20         50         61        110         10
    8      10         43         75        124         10
    9      55         60         74        129         10
   10      30         60        107        150         10
   11      20         65         42        101         10
   12      50         35         38         97         10
   13      30         25        131        196         10
   14      15         10         32        114         10
   15      30          5         35         96         10
   16      10         20         52        107         10
   17       5         30        124        189         10
   18      20         40         69        114         10
   19      15         60         52        109         10
   20      45         65        105        156         10
   21      45         20         37         96         10
   22      45         10         76        127         10
   23      55          5         43        102         10
   24      65         35        124        190         10
   25      65         20        121        186         10
   26      45         30        112        161         10
   27      35         40          8         75         10
   28      41         37         11         76         10
   29      64         42         37         98         10
   30      40         60         49        102         10
